WARNING: for repeatability, setting FPU to use double precision
============================[ Problem Statistics ]=============================
|                                                                             |
|  Number of variables:            50                                         |
|  Number of clauses:             218                                         |
|  Parse time:                   0.00 s                                       |
|                                                                             |
============================[ Search Statistics ]==============================
| Conflicts |          ORIGINAL         |          LEARNT          | Progress |
|           |    Vars  Clauses Literals |    Limit  Clauses Lit/Cl |          |
===============================================================================
===============================================================================
restarts              : 1
conflicts             : 21             (106061 /sec)
decisions             : 37             (0.00 % random) (186869 /sec)
propagations          : 302            (1525253 /sec)
conflict literals     : 95             (15.93 % deleted)
Memory used           : 20.00 MB
CPU time              : 0.000198 s

SATISFIABLE
